c nIsolatedPIs 0
c maxPI 32
p cnf 261 688
c gate 33 5 21 0
5 -33 0
21 -33 0
-5 -21 33 0
c gate 34 5 -21 0
5 -34 0
-21 -34 0
-5 21 34 0
c gate 35 -5 21 0
-5 -35 0
21 -35 0
5 -21 35 0
c gate 36 -34 -35 0
-34 -36 0
-35 -36 0
34 35 36 0
c gate 37 4 20 0
4 -37 0
20 -37 0
-4 -20 37 0
c gate 38 -4 -20 0
-4 -38 0
-20 -38 0
4 20 38 0
c gate 39 3 19 0
3 -39 0
19 -39 0
-3 -19 39 0
c gate 40 1 17 0
1 -40 0
17 -40 0
-1 -17 40 0
c gate 41 2 18 0
2 -41 0
18 -41 0
-2 -18 41 0
c gate 42 -40 -41 0
-40 -42 0
-41 -42 0
40 41 42 0
c gate 43 -3 19 0
-3 -43 0
19 -43 0
3 -19 43 0
c gate 44 3 -19 0
3 -44 0
-19 -44 0
-3 19 44 0
c gate 45 -43 -44 0
-43 -45 0
-44 -45 0
43 44 45 0
c gate 46 -42 -45 0
-42 -46 0
-45 -46 0
42 45 46 0
c gate 47 -39 -46 0
-39 -47 0
-46 -47 0
39 46 47 0
c gate 48 -38 -47 0
-38 -48 0
-47 -48 0
38 47 48 0
c gate 49 -37 -48 0
-37 -49 0
-48 -49 0
37 48 49 0
c gate 50 -2 -18 0
-2 -50 0
-18 -50 0
2 18 50 0
c gate 51 -39 50 0
-39 -51 0
50 -51 0
39 -50 51 0
c gate 52 -37 51 0
-37 -52 0
51 -52 0
37 -51 52 0
c gate 53 -49 -52 0
-49 -53 0
-52 -53 0
49 52 53 0
c gate 54 -36 53 0
-36 -54 0
53 -54 0
36 -53 54 0
c gate 55 -33 -54 0
-33 -55 0
-54 -55 0
33 54 55 0
c gate 56 6 -22 0
6 -56 0
-22 -56 0
-6 22 56 0
c gate 57 -6 22 0
-6 -57 0
22 -57 0
6 -22 57 0
c gate 58 -56 -57 0
-56 -58 0
-57 -58 0
56 57 58 0
c gate 59 49 58 0
49 -59 0
58 -59 0
-49 -58 59 0
c gate 60 55 -59 0
55 -60 0
-59 -60 0
-55 59 60 0
c gate 61 -11 -27 0
-11 -61 0
-27 -61 0
11 27 61 0
c gate 62 11 27 0
11 -62 0
27 -62 0
-11 -27 62 0
c gate 63 -61 -62 0
-61 -63 0
-62 -63 0
61 62 63 0
c gate 64 -10 26 0
-10 -64 0
26 -64 0
10 -26 64 0
c gate 65 -9 25 0
-9 -65 0
25 -65 0
9 -25 65 0
c gate 66 7 -23 0
7 -66 0
-23 -66 0
-7 23 66 0
c gate 67 -2 18 0
-2 -67 0
18 -67 0
2 -18 67 0
c gate 68 -1 17 0
-1 -68 0
17 -68 0
1 -17 68 0
c gate 69 -67 -68 0
-67 -69 0
-68 -69 0
67 68 69 0
c gate 70 2 -18 0
2 -70 0
-18 -70 0
-2 18 70 0
c gate 71 -44 -70 0
-44 -71 0
-70 -71 0
44 70 71 0
c gate 72 -69 71 0
-69 -72 0
71 -72 0
69 -71 72 0
c gate 73 -43 -72 0
-43 -73 0
-72 -73 0
43 72 73 0
c gate 74 4 -20 0
4 -74 0
-20 -74 0
-4 20 74 0
c gate 75 -73 -74 0
-73 -75 0
-74 -75 0
73 74 75 0
c gate 76 -4 20 0
-4 -76 0
20 -76 0
4 -20 76 0
c gate 77 -75 -76 0
-75 -77 0
-76 -77 0
75 76 77 0
c gate 78 -34 -77 0
-34 -78 0
-77 -78 0
34 77 78 0
c gate 79 -35 58 0
-35 -79 0
58 -79 0
35 -58 79 0
c gate 80 -78 79 0
-78 -80 0
79 -80 0
78 -79 80 0
c gate 81 -56 -80 0
-56 -81 0
-80 -81 0
56 80 81 0
c gate 82 -7 23 0
-7 -82 0
23 -82 0
7 -23 82 0
c gate 83 -66 -82 0
-66 -83 0
-82 -83 0
66 82 83 0
c gate 84 -81 83 0
-81 -84 0
83 -84 0
81 -83 84 0
c gate 85 -66 -84 0
-66 -85 0
-84 -85 0
66 84 85 0
c gate 86 8 24 0
8 -86 0
24 -86 0
-8 -24 86 0
c gate 87 -8 -24 0
-8 -87 0
-24 -87 0
8 24 87 0
c gate 88 -86 -87 0
-86 -88 0
-87 -88 0
86 87 88 0
c gate 89 -85 -88 0
-85 -89 0
-88 -89 0
85 88 89 0
c gate 90 8 -24 0
8 -90 0
-24 -90 0
-8 24 90 0
c gate 91 9 -25 0
9 -91 0
-25 -91 0
-9 25 91 0
c gate 92 -90 -91 0
-90 -92 0
-91 -92 0
90 91 92 0
c gate 93 -89 92 0
-89 -93 0
92 -93 0
89 -92 93 0
c gate 94 -65 -93 0
-65 -94 0
-93 -94 0
65 93 94 0
c gate 95 10 -26 0
10 -95 0
-26 -95 0
-10 26 95 0
c gate 96 -64 -95 0
-64 -96 0
-95 -96 0
64 95 96 0
c gate 97 -94 96 0
-94 -97 0
96 -97 0
94 -96 97 0
c gate 98 -64 -97 0
-64 -98 0
-97 -98 0
64 97 98 0
c gate 99 -63 -98 0
-63 -99 0
-98 -99 0
63 98 99 0
c gate 100 -13 -29 0
-13 -100 0
-29 -100 0
13 29 100 0
c gate 101 13 29 0
13 -101 0
29 -101 0
-13 -29 101 0
c gate 102 -100 -101 0
-100 -102 0
-101 -102 0
100 101 102 0
c gate 103 -15 -31 0
-15 -103 0
-31 -103 0
15 31 103 0
c gate 104 15 31 0
15 -104 0
31 -104 0
-15 -31 104 0
c gate 105 -103 -104 0
-103 -105 0
-104 -105 0
103 104 105 0
c gate 106 -102 -105 0
-102 -106 0
-105 -106 0
102 105 106 0
c gate 107 -14 -30 0
-14 -107 0
-30 -107 0
14 30 107 0
c gate 108 14 30 0
14 -108 0
30 -108 0
-14 -30 108 0
c gate 109 -107 -108 0
-107 -109 0
-108 -109 0
107 108 109 0
c gate 110 12 28 0
12 -110 0
28 -110 0
-12 -28 110 0
c gate 111 -12 -28 0
-12 -111 0
-28 -111 0
12 28 111 0
c gate 112 -110 -111 0
-110 -112 0
-111 -112 0
110 111 112 0
c gate 113 16 -32 0
16 -113 0
-32 -113 0
-16 32 113 0
c gate 114 -16 32 0
-16 -114 0
32 -114 0
16 -32 114 0
c gate 115 -113 -114 0
-113 -115 0
-114 -115 0
113 114 115 0
c gate 116 -112 115 0
-112 -116 0
115 -116 0
112 -115 116 0
c gate 117 -109 116 0
-109 -117 0
116 -117 0
109 -116 117 0
c gate 118 106 117 0
106 -118 0
117 -118 0
-106 -117 118 0
c gate 119 99 118 0
99 -119 0
118 -119 0
-99 -118 119 0
c gate 120 -92 96 0
-92 -120 0
96 -120 0
92 -96 120 0
c gate 121 -95 -120 0
-95 -121 0
-120 -121 0
95 120 121 0
c gate 122 63 -121 0
63 -122 0
-121 -122 0
-63 121 122 0
c gate 123 63 98 0
63 -123 0
98 -123 0
-63 -98 123 0
c gate 124 -99 -123 0
-99 -124 0
-123 -124 0
99 123 124 0
c gate 125 -122 -124 0
-122 -125 0
-124 -125 0
122 124 125 0
c gate 126 92 -96 0
92 -126 0
-96 -126 0
-92 96 126 0
c gate 127 -120 -126 0
-120 -127 0
-126 -127 0
120 126 127 0
c gate 128 94 -96 0
94 -128 0
-96 -128 0
-94 96 128 0
c gate 129 -97 -128 0
-97 -129 0
-128 -129 0
97 128 129 0
c gate 130 127 129 0
127 -130 0
129 -130 0
-127 -129 130 0
c gate 131 -127 -129 0
-127 -131 0
-129 -131 0
127 129 131 0
c gate 132 -9 -25 0
-9 -132 0
-25 -132 0
9 25 132 0
c gate 133 9 25 0
9 -133 0
25 -133 0
-9 -25 133 0
c gate 134 -132 -133 0
-132 -134 0
-133 -134 0
132 133 134 0
c gate 135 89 -134 0
89 -135 0
-134 -135 0
-89 134 135 0
c gate 136 -84 -89 0
-84 -136 0
-89 -136 0
84 89 136 0
c gate 137 -33 36 0
-33 -137 0
36 -137 0
33 -36 137 0
c gate 138 -77 137 0
-77 -138 0
137 -138 0
77 -137 138 0
c gate 139 -58 138 0
-58 -139 0
138 -139 0
58 -138 139 0
c gate 140 -80 -139 0
-80 -140 0
-139 -140 0
80 139 140 0
c gate 141 -84 140 0
-84 -141 0
140 -141 0
84 -140 141 0
c gate 142 -137 141 0
-137 -142 0
141 -142 0
137 -141 142 0
c gate 143 -6 -22 0
-6 -143 0
-22 -143 0
6 22 143 0
c gate 144 55 -58 0
55 -144 0
-58 -144 0
-55 58 144 0
c gate 145 -143 -144 0
-143 -145 0
-144 -145 0
143 144 145 0
c gate 146 -83 -145 0
-83 -146 0
-145 -146 0
83 145 146 0
c gate 147 -7 -23 0
-7 -147 0
-23 -147 0
7 23 147 0
c gate 148 -87 -147 0
-87 -148 0
-147 -148 0
87 147 148 0
c gate 149 -146 148 0
-146 -149 0
148 -149 0
146 -148 149 0
c gate 150 -86 -149 0
-86 -150 0
-149 -150 0
86 149 150 0
c gate 151 -132 -150 0
-132 -151 0
-150 -151 0
132 150 151 0
c gate 152 10 26 0
10 -152 0
26 -152 0
-10 -26 152 0
c gate 153 -133 -152 0
-133 -153 0
-152 -153 0
133 152 153 0
c gate 154 -151 153 0
-151 -154 0
153 -154 0
151 -153 154 0
c gate 155 -10 -26 0
-10 -155 0
-26 -155 0
10 26 155 0
c gate 156 -61 -155 0
-61 -156 0
-155 -156 0
61 155 156 0
c gate 157 -154 156 0
-154 -157 0
156 -157 0
154 -156 157 0
c gate 158 -62 -110 0
-62 -158 0
-110 -158 0
62 110 158 0
c gate 159 -157 158 0
-157 -159 0
158 -159 0
157 -158 159 0
c gate 160 -111 -159 0
-111 -160 0
-159 -160 0
111 159 160 0
c gate 161 -101 -160 0
-101 -161 0
-160 -161 0
101 160 161 0
c gate 162 -100 -161 0
-100 -162 0
-161 -162 0
100 161 162 0
c gate 163 109 -162 0
109 -163 0
-162 -163 0
-109 162 163 0
c gate 164 -107 -163 0
-107 -164 0
-163 -164 0
107 163 164 0
c gate 165 105 164 0
105 -165 0
164 -165 0
-105 -164 165 0
c gate 166 -104 -165 0
-104 -166 0
-165 -166 0
104 165 166 0
c gate 167 -115 166 0
-115 -167 0
166 -167 0
115 -166 167 0
c gate 168 115 -166 0
115 -168 0
-166 -168 0
-115 166 168 0
c gate 169 -167 -168 0
-167 -169 0
-168 -169 0
167 168 169 0
c gate 170 -101 -110 0
-101 -170 0
-110 -170 0
101 110 170 0
c gate 171 109 -170 0
109 -171 0
-170 -171 0
-109 170 171 0
c gate 172 -108 -171 0
-108 -172 0
-171 -172 0
108 171 172 0
c gate 173 -104 172 0
-104 -173 0
172 -173 0
104 -172 173 0
c gate 174 115 173 0
115 -174 0
173 -174 0
-115 -173 174 0
c gate 175 -115 -173 0
-115 -175 0
-173 -175 0
115 173 175 0
c gate 176 -174 -175 0
-174 -176 0
-175 -176 0
174 175 176 0
c gate 177 169 176 0
169 -177 0
176 -177 0
-169 -176 177 0
c gate 178 -169 -176 0
-169 -178 0
-176 -178 0
169 176 178 0
c gate 179 -177 -178 0
-177 -179 0
-178 -179 0
177 178 179 0
c gate 180 -115 -179 0
-115 -180 0
-179 -180 0
115 179 180 0
c gate 181 142 -180 0
142 -181 0
-180 -181 0
-142 180 181 0
c gate 182 88 146 0
88 -182 0
146 -182 0
-88 -146 182 0
c gate 183 40 -67 0
40 -183 0
-67 -183 0
-40 67 183 0
c gate 184 -70 183 0
-70 -184 0
183 -184 0
70 -183 184 0
c gate 185 36 -53 0
36 -185 0
-53 -185 0
-36 53 185 0
c gate 186 -54 -185 0
-54 -186 0
-185 -186 0
54 185 186 0
c gate 187 33 -49 0
33 -187 0
-49 -187 0
-33 49 187 0
c gate 188 -33 49 0
-33 -188 0
49 -188 0
33 -49 188 0
c gate 189 -187 -188 0
-187 -189 0
-188 -189 0
187 188 189 0
c gate 190 186 189 0
186 -190 0
189 -190 0
-186 -189 190 0
c gate 191 -186 -189 0
-186 -191 0
-189 -191 0
186 189 191 0
c gate 192 -190 -191 0
-190 -192 0
-191 -192 0
190 191 192 0
c gate 193 40 50 0
40 -193 0
50 -193 0
-40 -50 193 0
c gate 194 45 193 0
45 -194 0
193 -194 0
-45 -193 194 0
c gate 195 -37 -38 0
-37 -195 0
-38 -195 0
37 38 195 0
c gate 196 51 -195 0
51 -196 0
-195 -196 0
-51 195 196 0
c gate 197 -47 196 0
-47 -197 0
196 -197 0
47 -196 197 0
c gate 198 -194 -197 0
-194 -198 0
-197 -198 0
194 197 198 0
c gate 199 192 198 0
192 -199 0
198 -199 0
-192 -198 199 0
c gate 200 -60 199 0
-60 -200 0
199 -200 0
60 -199 200 0
c gate 201 -146 200 0
-146 -201 0
200 -201 0
146 -200 201 0
c gate 202 184 201 0
184 -202 0
201 -202 0
-184 -201 202 0
c gate 203 -182 -202 0
-182 -203 0
-202 -203 0
182 202 203 0
c gate 204 102 110 0
102 -204 0
110 -204 0
-102 -110 204 0
c gate 205 160 -204 0
160 -205 0
-204 -205 0
-160 204 205 0
c gate 206 105 -172 0
105 -206 0
-172 -206 0
-105 172 206 0
c gate 207 -164 -206 0
-164 -207 0
-206 -207 0
164 206 207 0
c gate 208 -165 -207 0
-165 -208 0
-207 -208 0
165 207 208 0
c gate 209 164 172 0
164 -209 0
172 -209 0
-164 -172 209 0
c gate 210 -208 -209 0
-208 -210 0
-209 -210 0
208 209 210 0
c gate 211 -205 210 0
-205 -211 0
210 -211 0
205 -210 211 0
c gate 212 179 211 0
179 -212 0
211 -212 0
-179 -211 212 0
c gate 213 203 212 0
203 -213 0
212 -213 0
-203 -212 213 0
c gate 214 63 -96 0
63 -214 0
-96 -214 0
-63 96 214 0
c gate 215 112 134 0
112 -215 0
134 -215 0
-112 -134 215 0
c gate 216 214 215 0
214 -216 0
215 -216 0
-214 -215 216 0
c gate 217 182 216 0
182 -217 0
216 -217 0
-182 -216 217 0
c gate 218 182 -217 0
182 -218 0
-217 -218 0
-182 217 218 0
c gate 219 212 -218 0
212 -219 0
-218 -219 0
-212 218 219 0
c gate 220 -109 170 0
-109 -220 0
170 -220 0
109 -170 220 0
c gate 221 -171 -220 0
-171 -221 0
-220 -221 0
171 220 221 0
c gate 222 -109 162 0
-109 -222 0
162 -222 0
109 -162 222 0
c gate 223 -163 -222 0
-163 -223 0
-222 -223 0
163 222 223 0
c gate 224 221 223 0
221 -224 0
223 -224 0
-221 -223 224 0
c gate 225 -221 -223 0
-221 -225 0
-223 -225 0
221 223 225 0
c gate 226 -102 160 0
-102 -226 0
160 -226 0
102 -160 226 0
c gate 227 -225 -226 0
-225 -227 0
-226 -227 0
225 226 227 0
c gate 228 -224 -227 0
-224 -228 0
-227 -228 0
224 227 228 0
c gate 229 -208 -228 0
-208 -229 0
-228 -229 0
208 228 229 0
c gate 230 -177 -229 0
-177 -230 0
-229 -230 0
177 229 230 0
c gate 231 -178 -230 0
-178 -231 0
-230 -231 0
178 230 231 0
c gate 232 -219 231 0
-219 -232 0
231 -232 0
219 -231 232 0
c gate 233 -213 -232 0
-213 -233 0
-232 -233 0
213 232 233 0
c gate 234 181 -233 0
181 -234 0
-233 -234 0
-181 233 234 0
c gate 235 142 -173 0
142 -235 0
-173 -235 0
-142 173 235 0
c gate 236 167 235 0
167 -236 0
235 -236 0
-167 -235 236 0
c gate 237 138 141 0
138 -237 0
141 -237 0
-138 -141 237 0
c gate 238 80 -83 0
80 -238 0
-83 -238 0
-80 83 238 0
c gate 239 -237 -238 0
-237 -239 0
-238 -239 0
237 238 239 0
c gate 240 -236 239 0
-236 -240 0
239 -240 0
236 -239 240 0
c gate 241 -181 240 0
-181 -241 0
240 -241 0
181 -240 241 0
c gate 242 -234 -241 0
-234 -242 0
-241 -242 0
234 241 242 0
c gate 243 136 -242 0
136 -243 0
-242 -243 0
-136 242 243 0
c gate 244 -135 -243 0
-135 -244 0
-243 -244 0
135 243 244 0
c gate 245 -131 -244 0
-131 -245 0
-244 -245 0
131 244 245 0
c gate 246 -130 -245 0
-130 -246 0
-245 -246 0
130 245 246 0
c gate 247 -125 -246 0
-125 -247 0
-246 -247 0
125 246 247 0
c gate 248 -98 122 0
-98 -248 0
122 -248 0
98 -122 248 0
c gate 249 -99 -248 0
-99 -249 0
-248 -249 0
99 248 249 0
c gate 250 -247 249 0
-247 -250 0
249 -250 0
247 -249 250 0
c gate 251 -119 -250 0
-119 -251 0
-250 -251 0
119 250 251 0
c gate 252 184 198 0
184 -252 0
198 -252 0
-184 -198 252 0
c gate 253 -190 -252 0
-190 -253 0
-252 -253 0
190 252 253 0
c gate 254 -191 -253 0
-191 -254 0
-253 -254 0
191 253 254 0
c gate 255 251 254 0
251 -255 0
254 -255 0
-251 -254 255 0
c gate 256 -190 -199 0
-190 -256 0
-199 -256 0
190 199 256 0
c gate 257 -251 256 0
-251 -257 0
256 -257 0
251 -256 257 0
c gate 258 -255 -257 0
-255 -258 0
-257 -258 0
255 257 258 0
c gate 259 -60 258 0
-60 -259 0
258 -259 0
60 -258 259 0
c gate 260 60 -258 0
60 -260 0
-258 -260 0
-60 258 260 0
c gate 261 -259 -260 0
-259 -261 0
-260 -261 0
259 260 261 0
c PO
261 0
